(set-logic QF_BV)
(declare-fun _substvar_120_ () (_ BitVec 143))
(declare-fun _substvar_76_ () (_ BitVec 143))
(declare-fun _substvar_172_ () Bool)
(declare-fun _substvar_112_ () (_ BitVec 143))
(declare-fun _substvar_108_ () (_ BitVec 143))
(assert (and true true true true true true true true true true true true true true true true true true true true true true true true true true true true true true true true true true true true true true true true true true true true true true true true true true true true true true true true true true true true true true true true true true true true true true true true true true true true true true true true true true true true true true true true true true true true true true true true true true true true true true true true true true true true true true true true true true true true true true true true true true true true (= _substvar_108_ (_ bv0 143)) (ite _substvar_172_ (= _substvar_112_ (_ bv0 143)) (= _substvar_112_ (concat (_ bv0 142) (bvxor (_ bv0 1) ((_ extract 121 121) _substvar_108_))))) (= _substvar_120_ (concat ((_ extract 141 0) _substvar_112_) (bvxor (bvxor (bvxor ((_ extract 142 142) _substvar_112_) (_ bv0 1)) ((_ extract 122 122) _substvar_112_)) (_ bv0 1)))) (= _substvar_76_ (concat ((_ extract 141 0) _substvar_120_) (_ bv0 1))) true true true (= (= (_ bv0 143) _substvar_76_) false)))
(check-sat)
(exit)
